p edge 150 2235
e 1 7
e 1 10
e 1 13
e 1 14
e 1 16
e 1 19
e 1 27
e 1 29
e 1 31
e 1 32
e 1 41
e 1 48
e 1 52
e 1 61
e 1 63
e 1 68
e 1 69
e 1 71
e 1 76
e 1 87
e 1 99
e 1 100
e 1 104
e 1 107
e 1 113
e 1 116
e 1 120
e 1 126
e 1 133
e 1 138
e 1 141
e 1 143
e 1 144
e 1 149
e 1 150
e 2 11
e 2 14
e 2 25
e 2 28
e 2 30
e 2 31
e 2 36
e 2 40
e 2 42
e 2 53
e 2 60
e 2 63
e 2 70
e 2 71
e 2 81
e 2 84
e 2 85
e 2 87
e 2 93
e 2 94
e 2 106
e 2 114
e 2 116
e 2 123
e 2 127
e 2 130
e 2 140
e 2 146
e 2 149
e 3 5
e 3 6
e 3 15
e 3 19
e 3 21
e 3 29
e 3 33
e 3 35
e 3 41
e 3 43
e 3 50
e 3 53
e 3 57
e 3 59
e 3 64
e 3 65
e 3 66
e 3 69
e 3 70
e 3 74
e 3 79
e 3 97
e 3 99
e 3 108
e 3 113
e 3 124
e 3 130
e 3 132
e 3 144
e 3 149
e 4 8
e 4 17
e 4 26
e 4 32
e 4 34
e 4 38
e 4 40
e 4 53
e 4 56
e 4 57
e 4 61
e 4 78
e 4 79
e 4 85
e 4 90
e 4 101
e 4 103
e 4 107
e 4 115
e 4 117
e 4 118
e 4 122
e 4 125
e 4 128
e 4 130
e 4 133
e 4 136
e 4 145
e 4 147
e 5 14
e 5 19
e 5 24
e 5 25
e 5 33
e 5 42
e 5 49
e 5 60
e 5 62
e 5 63
e 5 65
e 5 80
e 5 81
e 5 83
e 5 89
e 5 92
e 5 99
e 5 103
e 5 109
e 5 113
e 5 115
e 5 121
e 5 131
e 5 138
e 5 140
e 5 143
e 5 144
e 6 7
e 6 14
e 6 20
e 6 22
e 6 28
e 6 31
e 6 32
e 6 33
e 6 43
e 6 46
e 6 47
e 6 49
e 6 55
e 6 58
e 6 73
e 6 77
e 6 88
e 6 90
e 6 97
e 6 98
e 6 101
e 6 110
e 6 112
e 6 126
e 6 146
e 6 148
e 6 150
e 7 8
e 7 18
e 7 21
e 7 34
e 7 35
e 7 36
e 7 37
e 7 60
e 7 64
e 7 72
e 7 76
e 7 77
e 7 86
e 7 87
e 7 93
e 7 94
e 7 96
e 7 104
e 7 112
e 7 134
e 7 135
e 7 136
e 7 137
e 8 12
e 8 15
e 8 18
e 8 34
e 8 39
e 8 41
e 8 42
e 8 48
e 8 59
e 8 64
e 8 66
e 8 89
e 8 95
e 8 102
e 8 105
e 8 110
e 8 120
e 8 137
e 9 12
e 9 15
e 9 23
e 9 24
e 9 25
e 9 27
e 9 35
e 9 50
e 9 60
e 9 64
e 9 65
e 9 68
e 9 74
e 9 75
e 9 77
e 9 78
e 9 82
e 9 83
e 9 86
e 9 90
e 9 92
e 9 96
e 9 104
e 9 109
e 9 110
e 9 112
e 9 122
e 9 131
e 9 134
e 9 135
e 9 141
e 10 12
e 10 41
e 10 42
e 10 55
e 10 58
e 10 59
e 10 61
e 10 70
e 10 71
e 10 74
e 10 75
e 10 76
e 10 80
e 10 82
e 10 83
e 10 90
e 10 92
e 10 98
e 10 100
e 10 107
e 10 109
e 10 112
e 10 118
e 10 120
e 10 126
e 10 139
e 10 140
e 11 22
e 11 24
e 11 29
e 11 39
e 11 44
e 11 46
e 11 47
e 11 52
e 11 53
e 11 62
e 11 65
e 11 71
e 11 76
e 11 80
e 11 81
e 11 88
e 11 89
e 11 101
e 11 111
e 11 113
e 11 116
e 11 124
e 11 131
e 11 140
e 11 142
e 11 143
e 11 148
e 12 13
e 12 14
e 12 15
e 12 16
e 12 22
e 12 23
e 12 24
e 12 25
e 12 31
e 12 33
e 12 37
e 12 42
e 12 49
e 12 53
e 12 57
e 12 64
e 12 73
e 12 86
e 12 90
e 12 100
e 12 108
e 12 110
e 12 111
e 12 112
e 12 114
e 12 116
e 12 119
e 12 134
e 12 137
e 12 146
e 12 147
e 13 16
e 13 17
e 13 22
e 13 31
e 13 33
e 13 46
e 13 48
e 13 52
e 13 59
e 13 75
e 13 76
e 13 77
e 13 79
e 13 85
e 13 93
e 13 96
e 13 99
e 13 102
e 13 103
e 13 105
e 13 108
e 13 121
e 13 138
e 13 141
e 13 142
e 14 16
e 14 18
e 14 37
e 14 41
e 14 42
e 14 43
e 14 54
e 14 60
e 14 70
e 14 72
e 14 75
e 14 77
e 14 86
e 14 88
e 14 89
e 14 91
e 14 93
e 14 96
e 14 100
e 14 104
e 14 110
e 14 114
e 14 115
e 14 123
e 14 125
e 14 133
e 14 138
e 14 140
e 14 143
e 14 144
e 14 145
e 14 147
e 14 148
e 14 150
e 15 18
e 15 23
e 15 26
e 15 33
e 15 37
e 15 41
e 15 47
e 15 49
e 15 53
e 15 59
e 15 68
e 15 69
e 15 76
e 15 83
e 15 89
e 15 93
e 15 96
e 15 98
e 15 104
e 15 108
e 15 117
e 15 118
e 15 120
e 15 121
e 15 125
e 15 128
e 15 130
e 15 131
e 15 140
e 15 145
e 15 149
e 15 150
e 16 19
e 16 26
e 16 57
e 16 60
e 16 66
e 16 76
e 16 78
e 16 84
e 16 87
e 16 101
e 16 102
e 16 109
e 16 110
e 16 111
e 16 112
e 16 122
e 17 18
e 17 21
e 17 24
e 17 26
e 17 38
e 17 40
e 17 45
e 17 47
e 17 48
e 17 51
e 17 52
e 17 63
e 17 65
e 17 74
e 17 76
e 17 78
e 17 81
e 17 83
e 17 89
e 17 95
e 17 97
e 17 104
e 17 106
e 17 108
e 17 109
e 17 119
e 17 120
e 17 121
e 17 123
e 17 128
e 17 134
e 17 141
e 17 143
e 18 21
e 18 24
e 18 31
e 18 39
e 18 42
e 18 45
e 18 47
e 18 56
e 18 66
e 18 72
e 18 75
e 18 77
e 18 83
e 18 98
e 18 101
e 18 111
e 18 112
e 18 113
e 18 115
e 18 126
e 18 129
e 18 135
e 18 137
e 19 27
e 19 33
e 19 36
e 19 44
e 19 52
e 19 55
e 19 57
e 19 59
e 19 60
e 19 69
e 19 70
e 19 77
e 19 91
e 19 92
e 19 98
e 19 110
e 19 113
e 19 116
e 19 119
e 19 120
e 19 128
e 19 134
e 19 136
e 19 143
e 19 146
e 19 149
e 20 23
e 20 29
e 20 34
e 20 35
e 20 41
e 20 42
e 20 43
e 20 47
e 20 66
e 20 67
e 20 71
e 20 72
e 20 74
e 20 75
e 20 76
e 20 80
e 20 82
e 20 87
e 20 99
e 20 112
e 20 113
e 20 115
e 20 118
e 20 122
e 20 124
e 20 131
e 20 136
e 20 139
e 21 32
e 21 38
e 21 47
e 21 53
e 21 54
e 21 60
e 21 68
e 21 71
e 21 80
e 21 90
e 21 91
e 21 100
e 21 101
e 21 109
e 21 111
e 21 112
e 21 118
e 21 123
e 21 124
e 21 125
e 21 129
e 21 134
e 21 137
e 22 23
e 22 28
e 22 35
e 22 38
e 22 40
e 22 51
e 22 60
e 22 62
e 22 63
e 22 64
e 22 66
e 22 67
e 22 69
e 22 74
e 22 78
e 22 89
e 22 93
e 22 101
e 22 103
e 22 105
e 22 112
e 22 115
e 22 117
e 22 124
e 22 133
e 22 136
e 22 138
e 22 141
e 22 142
e 23 30
e 23 37
e 23 39
e 23 44
e 23 47
e 23 60
e 23 61
e 23 63
e 23 64
e 23 68
e 23 69
e 23 72
e 23 80
e 23 82
e 23 85
e 23 89
e 23 93
e 23 97
e 23 98
e 23 101
e 23 111
e 23 115
e 23 120
e 23 128
e 23 132
e 23 135
e 23 136
e 23 137
e 23 143
e 23 147
e 23 148
e 23 149
e 23 150
e 24 31
e 24 38
e 24 43
e 24 48
e 24 49
e 24 54
e 24 56
e 24 57
e 24 69
e 24 83
e 24 92
e 24 93
e 24 96
e 24 101
e 24 102
e 24 105
e 24 106
e 24 112
e 24 116
e 24 123
e 24 143
e 24 144
e 24 145
e 24 146
e 25 26
e 25 38
e 25 47
e 25 53
e 25 57
e 25 64
e 25 74
e 25 82
e 25 85
e 25 90
e 25 100
e 25 104
e 25 111
e 25 115
e 25 116
e 25 123
e 25 131
e 25 138
e 25 141
e 25 143
e 25 149
e 26 30
e 26 37
e 26 41
e 26 42
e 26 54
e 26 56
e 26 67
e 26 73
e 26 75
e 26 81
e 26 82
e 26 94
e 26 98
e 26 99
e 26 109
e 26 110
e 26 114
e 26 116
e 26 121
e 26 124
e 26 127
e 26 130
e 26 134
e 26 137
e 26 139
e 26 141
e 27 28
e 27 33
e 27 35
e 27 44
e 27 49
e 27 59
e 27 61
e 27 64
e 27 65
e 27 77
e 27 81
e 27 83
e 27 92
e 27 96
e 27 102
e 27 103
e 27 105
e 27 110
e 27 113
e 27 120
e 27 129
e 27 132
e 27 134
e 27 147
e 27 149
e 28 36
e 28 45
e 28 47
e 28 49
e 28 66
e 28 67
e 28 74
e 28 76
e 28 79
e 28 87
e 28 96
e 28 97
e 28 98
e 28 101
e 28 105
e 28 115
e 28 117
e 28 119
e 28 127
e 28 132
e 28 136
e 28 141
e 28 144
e 29 31
e 29 38
e 29 44
e 29 50
e 29 52
e 29 56
e 29 60
e 29 61
e 29 63
e 29 72
e 29 92
e 29 100
e 29 101
e 29 102
e 29 110
e 29 119
e 29 125
e 29 126
e 29 131
e 29 136
e 29 137
e 29 139
e 29 144
e 29 149
e 30 49
e 30 56
e 30 57
e 30 62
e 30 66
e 30 68
e 30 69
e 30 82
e 30 84
e 30 91
e 30 93
e 30 103
e 30 112
e 30 113
e 30 114
e 30 116
e 30 123
e 30 126
e 30 132
e 30 133
e 30 134
e 30 138
e 30 140
e 30 145
e 31 33
e 31 34
e 31 43
e 31 52
e 31 70
e 31 72
e 31 73
e 31 76
e 31 78
e 31 103
e 31 111
e 31 112
e 31 113
e 31 118
e 31 119
e 31 121
e 31 123
e 31 128
e 31 131
e 31 135
e 31 137
e 31 146
e 31 148
e 31 149
e 31 150
e 32 37
e 32 39
e 32 41
e 32 50
e 32 54
e 32 63
e 32 70
e 32 84
e 32 88
e 32 90
e 32 92
e 32 95
e 32 114
e 32 119
e 32 121
e 32 125
e 32 131
e 32 144
e 32 146
e 33 42
e 33 46
e 33 47
e 33 48
e 33 56
e 33 63
e 33 76
e 33 86
e 33 87
e 33 110
e 33 118
e 33 119
e 33 124
e 33 138
e 33 145
e 33 147
e 33 149
e 34 36
e 34 38
e 34 42
e 34 43
e 34 44
e 34 45
e 34 50
e 34 53
e 34 55
e 34 62
e 34 72
e 34 83
e 34 84
e 34 90
e 34 103
e 34 104
e 34 111
e 34 125
e 34 127
e 34 130
e 34 132
e 34 135
e 34 137
e 34 148
e 34 150
e 35 38
e 35 40
e 35 46
e 35 50
e 35 61
e 35 67
e 35 68
e 35 69
e 35 76
e 35 77
e 35 78
e 35 81
e 35 104
e 35 114
e 35 117
e 35 118
e 35 120
e 35 121
e 35 127
e 35 130
e 35 131
e 35 132
e 35 134
e 35 139
e 35 140
e 35 145
e 35 149
e 36 42
e 36 48
e 36 54
e 36 61
e 36 63
e 36 72
e 36 73
e 36 74
e 36 81
e 36 85
e 36 86
e 36 94
e 36 97
e 36 103
e 36 111
e 36 113
e 36 120
e 36 124
e 36 130
e 36 137
e 36 142
e 36 144
e 36 145
e 37 41
e 37 44
e 37 45
e 37 49
e 37 51
e 37 56
e 37 66
e 37 71
e 37 78
e 37 97
e 37 98
e 37 107
e 37 110
e 37 119
e 37 121
e 37 123
e 37 125
e 37 129
e 37 132
e 37 138
e 37 146
e 38 41
e 38 50
e 38 52
e 38 56
e 38 65
e 38 73
e 38 77
e 38 79
e 38 82
e 38 86
e 38 88
e 38 91
e 38 95
e 38 97
e 38 98
e 38 111
e 38 112
e 38 114
e 38 123
e 38 124
e 38 128
e 38 130
e 38 132
e 38 136
e 38 138
e 38 139
e 39 40
e 39 45
e 39 56
e 39 57
e 39 59
e 39 67
e 39 69
e 39 80
e 39 85
e 39 89
e 39 90
e 39 92
e 39 94
e 39 96
e 39 101
e 39 103
e 39 104
e 39 107
e 39 112
e 39 118
e 39 121
e 39 125
e 39 126
e 39 127
e 39 129
e 39 132
e 39 135
e 39 150
e 40 44
e 40 45
e 40 56
e 40 62
e 40 66
e 40 68
e 40 69
e 40 77
e 40 90
e 40 93
e 40 101
e 40 104
e 40 114
e 40 118
e 40 120
e 40 123
e 40 124
e 40 127
e 40 128
e 40 134
e 40 140
e 40 141
e 40 149
e 41 52
e 41 53
e 41 56
e 41 60
e 41 64
e 41 66
e 41 71
e 41 73
e 41 79
e 41 80
e 41 85
e 41 92
e 41 96
e 41 107
e 41 112
e 41 115
e 41 120
e 41 121
e 41 123
e 41 124
e 41 131
e 41 136
e 41 137
e 41 140
e 41 147
e 42 50
e 42 51
e 42 58
e 42 78
e 42 82
e 42 85
e 42 86
e 42 93
e 42 97
e 42 99
e 42 101
e 42 105
e 42 109
e 42 112
e 42 115
e 42 118
e 42 122
e 42 129
e 42 136
e 42 139
e 42 142
e 43 44
e 43 50
e 43 54
e 43 67
e 43 84
e 43 85
e 43 91
e 43 101
e 43 105
e 43 106
e 43 110
e 43 111
e 43 114
e 43 120
e 43 124
e 43 128
e 43 130
e 43 145
e 43 146
e 43 149
e 44 47
e 44 49
e 44 63
e 44 70
e 44 71
e 44 73
e 44 75
e 44 77
e 44 83
e 44 85
e 44 96
e 44 97
e 44 99
e 44 100
e 44 103
e 44 112
e 44 113
e 44 114
e 44 120
e 44 126
e 44 127
e 44 128
e 44 130
e 44 135
e 44 145
e 44 146
e 44 147
e 45 49
e 45 51
e 45 61
e 45 63
e 45 64
e 45 65
e 45 67
e 45 73
e 45 79
e 45 80
e 45 84
e 45 89
e 45 99
e 45 102
e 45 104
e 45 106
e 45 107
e 45 114
e 45 120
e 45 124
e 45 127
e 45 128
e 45 130
e 45 131
e 45 134
e 45 138
e 45 139
e 45 142
e 45 146
e 45 148
e 46 48
e 46 54
e 46 55
e 46 63
e 46 69
e 46 72
e 46 79
e 46 81
e 46 84
e 46 89
e 46 90
e 46 91
e 46 97
e 46 102
e 46 110
e 46 112
e 46 113
e 46 115
e 46 119
e 46 130
e 46 132
e 46 134
e 46 135
e 46 139
e 46 142
e 46 146
e 46 147
e 47 49
e 47 51
e 47 54
e 47 55
e 47 56
e 47 60
e 47 72
e 47 73
e 47 75
e 47 78
e 47 79
e 47 83
e 47 84
e 47 85
e 47 91
e 47 94
e 47 96
e 47 106
e 47 127
e 47 132
e 47 137
e 47 141
e 48 51
e 48 62
e 48 73
e 48 82
e 48 85
e 48 96
e 48 99
e 48 101
e 48 107
e 48 108
e 48 120
e 48 122
e 48 123
e 48 124
e 48 131
e 48 136
e 48 137
e 48 139
e 48 142
e 48 143
e 48 149
e 48 150
e 49 51
e 49 64
e 49 65
e 49 66
e 49 74
e 49 76
e 49 77
e 49 78
e 49 79
e 49 82
e 49 89
e 49 94
e 49 99
e 49 113
e 49 118
e 49 120
e 49 126
e 49 130
e 49 131
e 49 136
e 49 142
e 49 144
e 49 146
e 49 148
e 50 55
e 50 61
e 50 79
e 50 80
e 50 84
e 50 96
e 50 99
e 50 107
e 50 110
e 50 118
e 50 123
e 50 125
e 50 131
e 50 140
e 50 144
e 50 145
e 50 146
e 50 148
e 50 149
e 51 52
e 51 64
e 51 65
e 51 67
e 51 74
e 51 78
e 51 83
e 51 84
e 51 86
e 51 87
e 51 92
e 51 105
e 51 106
e 51 112
e 51 124
e 51 125
e 51 126
e 51 137
e 51 138
e 51 140
e 51 141
e 51 148
e 52 54
e 52 58
e 52 64
e 52 66
e 52 74
e 52 80
e 52 81
e 52 93
e 52 94
e 52 98
e 52 107
e 52 117
e 52 122
e 52 126
e 52 127
e 52 128
e 52 136
e 52 137
e 52 139
e 52 141
e 52 142
e 52 150
e 53 62
e 53 72
e 53 74
e 53 82
e 53 87
e 53 91
e 53 94
e 53 102
e 53 113
e 53 119
e 53 124
e 53 137
e 53 138
e 53 144
e 53 145
e 53 147
e 53 149
e 54 55
e 54 57
e 54 60
e 54 66
e 54 76
e 54 79
e 54 81
e 54 84
e 54 90
e 54 91
e 54 92
e 54 93
e 54 94
e 54 96
e 54 97
e 54 99
e 54 111
e 54 116
e 54 118
e 54 119
e 54 141
e 55 58
e 55 60
e 55 62
e 55 65
e 55 67
e 55 77
e 55 89
e 55 97
e 55 98
e 55 101
e 55 105
e 55 107
e 55 114
e 55 127
e 55 134
e 55 135
e 55 136
e 55 143
e 56 76
e 56 100
e 56 103
e 56 109
e 56 111
e 56 112
e 56 114
e 56 121
e 56 123
e 56 125
e 56 139
e 56 140
e 56 142
e 56 143
e 56 146
e 56 147
e 57 64
e 57 74
e 57 75
e 57 76
e 57 83
e 57 98
e 57 99
e 57 100
e 57 107
e 57 108
e 57 116
e 57 122
e 57 124
e 57 133
e 57 136
e 57 137
e 57 141
e 57 143
e 57 144
e 57 146
e 58 64
e 58 76
e 58 77
e 58 90
e 58 97
e 58 100
e 58 102
e 58 111
e 58 117
e 58 119
e 58 125
e 58 129
e 58 137
e 58 138
e 58 142
e 58 144
e 58 146
e 59 65
e 59 70
e 59 71
e 59 85
e 59 91
e 59 93
e 59 102
e 59 103
e 59 116
e 59 124
e 59 131
e 59 132
e 59 133
e 59 134
e 59 139
e 59 142
e 59 144
e 59 146
e 60 62
e 60 63
e 60 70
e 60 71
e 60 81
e 60 94
e 60 96
e 60 105
e 60 111
e 60 112
e 60 116
e 60 117
e 60 120
e 60 135
e 60 136
e 60 137
e 60 138
e 60 139
e 60 146
e 60 150
e 61 67
e 61 70
e 61 88
e 61 89
e 61 92
e 61 97
e 61 102
e 61 104
e 61 106
e 61 113
e 61 123
e 61 124
e 61 138
e 61 144
e 61 148
e 61 150
e 62 64
e 62 70
e 62 77
e 62 78
e 62 81
e 62 84
e 62 85
e 62 86
e 62 88
e 62 98
e 62 123
e 62 125
e 62 130
e 62 143
e 62 148
e 62 149
e 63 67
e 63 70
e 63 71
e 63 78
e 63 87
e 63 90
e 63 99
e 63 104
e 63 110
e 63 115
e 63 116
e 63 121
e 63 123
e 63 128
e 63 135
e 63 136
e 63 138
e 63 139
e 64 69
e 64 75
e 64 77
e 64 83
e 64 85
e 64 88
e 64 90
e 64 91
e 64 98
e 64 100
e 64 114
e 64 117
e 64 119
e 64 127
e 64 131
e 64 136
e 64 140
e 64 144
e 64 146
e 65 69
e 65 76
e 65 77
e 65 79
e 65 86
e 65 96
e 65 99
e 65 100
e 65 104
e 65 108
e 65 113
e 65 117
e 65 119
e 65 122
e 65 135
e 65 137
e 65 146
e 65 147
e 65 150
e 66 69
e 66 77
e 66 86
e 66 94
e 66 96
e 66 105
e 66 116
e 66 134
e 66 137
e 66 140
e 66 142
e 66 143
e 67 71
e 67 75
e 67 76
e 67 91
e 67 101
e 67 103
e 67 113
e 67 119
e 67 121
e 67 128
e 67 129
e 67 148
e 68 78
e 68 79
e 68 81
e 68 85
e 68 94
e 68 99
e 68 108
e 68 110
e 68 111
e 68 113
e 68 116
e 68 119
e 68 122
e 68 131
e 68 140
e 68 144
e 68 146
e 68 147
e 69 86
e 69 88
e 69 93
e 69 97
e 69 100
e 69 108
e 69 114
e 69 127
e 69 134
e 70 72
e 70 75
e 70 76
e 70 83
e 70 87
e 70 88
e 70 98
e 70 102
e 70 107
e 70 109
e 70 114
e 70 130
e 70 133
e 70 136
e 70 142
e 71 76
e 71 80
e 71 87
e 71 96
e 71 99
e 71 102
e 71 103
e 71 104
e 71 107
e 71 113
e 71 116
e 71 121
e 71 126
e 71 128
e 71 137
e 71 142
e 71 146
e 71 147
e 72 73
e 72 74
e 72 76
e 72 78
e 72 79
e 72 85
e 72 86
e 72 117
e 72 121
e 72 127
e 72 128
e 72 129
e 72 130
e 72 135
e 72 149
e 73 78
e 73 82
e 73 84
e 73 91
e 73 95
e 73 98
e 73 101
e 73 105
e 73 108
e 73 116
e 73 118
e 73 125
e 73 131
e 73 142
e 73 144
e 73 150
e 74 79
e 74 83
e 74 84
e 74 86
e 74 88
e 74 89
e 74 93
e 74 96
e 74 104
e 74 110
e 74 111
e 74 112
e 74 116
e 74 124
e 74 125
e 74 127
e 74 129
e 74 132
e 74 139
e 74 140
e 74 143
e 74 145
e 74 146
e 74 147
e 75 89
e 75 93
e 75 97
e 75 100
e 75 108
e 75 111
e 75 112
e 75 118
e 75 125
e 75 128
e 75 137
e 75 139
e 75 141
e 75 145
e 75 147
e 76 81
e 76 91
e 76 95
e 76 99
e 76 103
e 76 107
e 76 110
e 76 118
e 76 131
e 76 138
e 76 139
e 76 148
e 77 78
e 77 99
e 77 106
e 77 108
e 77 120
e 77 125
e 77 127
e 77 137
e 77 139
e 77 145
e 77 148
e 77 149
e 78 90
e 78 92
e 78 96
e 78 98
e 78 103
e 78 105
e 78 112
e 78 113
e 78 114
e 78 117
e 78 119
e 78 130
e 78 131
e 78 134
e 78 137
e 78 146
e 78 147
e 79 84
e 79 86
e 79 88
e 79 92
e 79 101
e 79 116
e 79 119
e 79 122
e 79 128
e 79 138
e 79 139
e 79 145
e 79 147
e 80 81
e 80 82
e 80 84
e 80 87
e 80 102
e 80 103
e 80 123
e 80 127
e 80 129
e 80 130
e 80 135
e 80 136
e 80 140
e 80 150
e 81 94
e 81 99
e 81 100
e 81 104
e 81 127
e 81 137
e 81 138
e 81 146
e 81 147
e 81 148
e 82 83
e 82 88
e 82 91
e 82 94
e 82 99
e 82 101
e 82 109
e 82 113
e 82 114
e 82 116
e 82 117
e 82 130
e 83 85
e 83 86
e 83 87
e 83 91
e 83 92
e 83 95
e 83 99
e 83 100
e 83 110
e 83 113
e 83 118
e 83 131
e 83 133
e 83 134
e 83 137
e 83 144
e 84 87
e 84 96
e 84 126
e 84 134
e 84 137
e 84 140
e 84 142
e 84 149
e 85 90
e 85 100
e 85 102
e 85 104
e 85 107
e 85 108
e 85 121
e 85 125
e 85 129
e 85 142
e 85 143
e 85 150
e 86 90
e 86 94
e 86 95
e 86 98
e 86 108
e 86 109
e 86 116
e 86 119
e 86 122
e 86 126
e 86 128
e 87 89
e 87 90
e 87 92
e 87 98
e 87 109
e 87 117
e 87 118
e 87 132
e 87 133
e 87 134
e 87 136
e 87 139
e 87 144
e 87 145
e 87 146
e 87 148
e 88 90
e 88 93
e 88 94
e 88 103
e 88 109
e 88 110
e 88 114
e 88 128
e 88 133
e 88 147
e 89 93
e 89 100
e 89 108
e 89 118
e 89 122
e 89 123
e 89 124
e 89 132
e 89 138
e 89 140
e 89 143
e 89 148
e 90 95
e 90 98
e 90 105
e 90 106
e 90 113
e 90 117
e 90 119
e 90 122
e 90 124
e 90 125
e 90 126
e 90 131
e 90 135
e 91 92
e 91 102
e 91 106
e 91 107
e 91 113
e 91 115
e 91 117
e 91 119
e 91 121
e 91 127
e 91 138
e 91 144
e 92 96
e 92 100
e 92 102
e 92 103
e 92 104
e 92 106
e 92 109
e 92 110
e 92 111
e 92 119
e 92 126
e 92 135
e 92 143
e 92 145
e 92 147
e 92 149
e 93 95
e 93 96
e 93 97
e 93 109
e 93 111
e 93 129
e 93 135
e 94 105
e 94 106
e 94 109
e 94 110
e 94 114
e 94 124
e 94 125
e 94 129
e 94 131
e 94 132
e 94 136
e 94 138
e 94 142
e 95 100
e 95 107
e 95 125
e 95 136
e 95 138
e 95 140
e 95 141
e 95 145
e 96 102
e 96 109
e 96 110
e 96 111
e 96 112
e 96 125
e 96 127
e 96 128
e 96 131
e 96 132
e 97 99
e 97 103
e 97 117
e 97 118
e 97 120
e 97 128
e 97 131
e 97 134
e 97 137
e 97 150
e 98 106
e 98 108
e 98 109
e 98 118
e 98 123
e 98 137
e 98 142
e 98 148
e 99 104
e 99 110
e 99 115
e 99 116
e 99 121
e 99 125
e 99 137
e 99 145
e 100 103
e 100 108
e 100 117
e 100 131
e 100 132
e 100 138
e 100 148
e 101 104
e 101 108
e 101 109
e 101 116
e 101 119
e 101 120
e 101 122
e 101 126
e 101 129
e 101 130
e 101 131
e 101 132
e 101 136
e 101 137
e 101 138
e 101 139
e 101 140
e 101 141
e 101 146
e 101 148
e 101 149
e 102 111
e 102 112
e 102 115
e 102 123
e 102 126
e 102 131
e 102 135
e 103 111
e 103 115
e 103 118
e 103 127
e 103 128
e 103 133
e 103 135
e 103 136
e 103 139
e 103 145
e 103 146
e 104 115
e 104 116
e 104 117
e 104 131
e 105 113
e 105 116
e 105 122
e 105 123
e 105 128
e 105 131
e 105 133
e 105 137
e 105 140
e 106 117
e 106 125
e 106 141
e 106 146
e 106 147
e 106 148
e 107 114
e 107 115
e 107 116
e 107 121
e 107 127
e 107 132
e 107 136
e 107 138
e 107 146
e 108 110
e 108 131
e 108 133
e 108 145
e 108 146
e 108 148
e 108 150
e 109 114
e 109 117
e 109 121
e 109 127
e 109 133
e 109 140
e 109 146
e 109 147
e 110 117
e 110 128
e 110 132
e 110 135
e 110 141
e 110 142
e 111 119
e 111 139
e 111 144
e 111 147
e 111 148
e 111 149
e 112 115
e 112 121
e 112 122
e 112 129
e 112 138
e 112 140
e 112 145
e 112 146
e 113 116
e 113 119
e 113 121
e 113 136
e 113 140
e 113 141
e 113 142
e 113 149
e 113 150
e 114 118
e 114 121
e 114 125
e 114 126
e 114 127
e 114 134
e 114 136
e 114 138
e 114 141
e 114 143
e 114 145
e 115 116
e 115 126
e 115 127
e 115 130
e 115 132
e 115 138
e 116 120
e 116 122
e 116 124
e 116 133
e 116 139
e 117 121
e 117 130
e 117 133
e 117 147
e 118 119
e 118 124
e 118 125
e 118 129
e 118 131
e 118 136
e 118 147
e 119 120
e 119 122
e 119 131
e 119 133
e 119 134
e 119 138
e 119 141
e 119 142
e 119 144
e 120 127
e 120 134
e 120 135
e 120 139
e 120 143
e 120 145
e 120 147
e 120 149
e 121 122
e 121 123
e 121 128
e 121 131
e 121 134
e 121 136
e 121 140
e 121 147
e 122 125
e 122 131
e 122 132
e 122 137
e 122 143
e 122 144
e 122 150
e 123 126
e 123 136
e 123 138
e 123 147
e 123 148
e 124 127
e 124 130
e 124 133
e 124 135
e 125 127
e 125 135
e 125 136
e 125 137
e 125 147
e 125 148
e 126 132
e 126 145
e 126 148
e 126 150
e 127 144
e 128 133
e 128 137
e 128 141
e 128 148
e 129 137
e 129 143
e 130 132
e 130 137
e 130 145
e 130 150
e 131 134
e 131 137
e 131 138
e 131 142
e 131 146
e 132 134
e 132 148
e 132 149
e 133 138
e 134 135
e 134 136
e 134 138
e 134 147
e 135 140
e 135 141
e 135 142
e 135 146
e 135 150
e 136 142
e 136 147
e 138 140
e 138 146
e 138 149
e 139 146
e 139 149
e 139 150
e 140 143
e 140 148
e 142 144
e 144 145
e 145 148
e 145 149
e 145 150
e 146 148
e 148 149
